35
270
2
36,49,69,78,17,77,5,77,19,71,15,46,27,84,19,43,93,44,96,57,52,99,23,81,1,84,6,47,5,12,51,2,53,98,11
8,94,18,34,43,49,35,22,23,97,55,81,5,52,97,28,89,58,16,81,50,39,9,52,19,34,2,96,48,50,99,95,42,68,54
2,1,1,2,2,2,2,1,1,2,2,1,2,2,1,1,2,1,2,2,2,1,1,2,1,2,1,2,2,1,2,1,2,1,2
